Version identifier: 12.10.0.0 | 2019-11-26 | 843d4de
CPXPARAM_WorkMem                                 16384
CPXPARAM_MIP_Limits_TreeMemory                   24576
Tried aggregator 2 times.
Aggregator did 60 substitutions.
Reduced MIP has 264 rows, 320 columns, and 1224 nonzeros.
Reduced MIP has 320 binaries, 0 generals, 0 SOSs, and 0 indicators.
Presolve time = 0,00 sec. (1,18 ticks)
Found incumbent of value 824,000000 after 0,00 sec. (1,94 ticks)
Probing time = 0,00 sec. (0,45 ticks)
Tried aggregator 1 time.
Detecting symmetries...
MIP Presolve eliminated 64 rows and 0 columns.
MIP Presolve added 128 rows and 0 columns.
Reduced MIP has 328 rows, 320 columns, and 1288 nonzeros.
Reduced MIP has 320 binaries, 0 generals, 0 SOSs, and 0 indicators.
Presolve time = 0,00 sec. (1,63 ticks)
Probing time = 0,00 sec. (0,44 ticks)
Clique table members: 844.
MIP emphasis: balance optimality and feasibility.
MIP search method: dynamic search.
Parallel mode: deterministic, using up to 16 threads.
Root relaxation solution time = 0,00 sec. (1,57 ticks)

        Nodes                                         Cuts/
   Node  Left     Objective  IInf  Best Integer    Best Bound    ItCnt     Gap

*     0+    0                          824,0000        0,0000           100,00%
*     0+    0                          521,0000        0,0000           100,00%
      0     0      206,0000   175      521,0000      206,0000      145   60,46%
      0     0      206,1687   175      521,0000     Cuts: 156      238   60,43%
*     0+    0                          499,0000      206,1687            58,68%
      0     0      206,9015   175      499,0000     Cuts: 182      272   58,54%
      0     0      207,6313   175      499,0000      Fract: 2      295   58,39%
*     0+    0                          493,0000      207,6313            57,88%
      0     0      207,8193   175      493,0000     Cuts: 182      323   57,85%
      0     0      207,9074   175      493,0000     Cuts: 182      333   57,83%
      0     0      224,2982   175      493,0000     Cuts: 182      609   54,50%
      0     0      224,4211   175      493,0000   ZeroHalf: 7      618   54,48%
*     0+    0                          455,0000      224,4211            50,68%
      0     0      224,6840   175      455,0000   ZeroHalf: 6      666   50,62%
      0     0      225,1897   175      455,0000   ZeroHalf: 6      697   50,51%
      0     0      225,3591   175      455,0000   ZeroHalf: 8      716   50,47%
      0     0      226,0433   175      455,0000   ZeroHalf: 4      758   50,32%
      0     0      226,2592   175      455,0000   ZeroHalf: 8      773   50,27%
      0     0      226,8090   175      455,0000   ZeroHalf: 4      824   50,15%
      0     0      226,8429   175      455,0000   ZeroHalf: 7      846   50,14%
      0     0      226,9817   175      455,0000   ZeroHalf: 3      880   50,11%
      0     0      227,1959   175      455,0000   ZeroHalf: 5      946   50,07%
      0     0      227,4337   175      455,0000     Cuts: 129      975   50,01%
      0     0      227,4753   175      455,0000   ZeroHalf: 4      987   50,01%
      0     0      227,8470   175      455,0000   ZeroHalf: 3     1037   49,92%
      0     0      227,9504   175      455,0000   ZeroHalf: 6     1068   49,90%
      0     0      227,9939   175      455,0000   ZeroHalf: 2     1080   49,89%
      0     0      227,9939   175      455,0000   ZeroHalf: 1     1081   49,89%
      0     2      227,9939   309      455,0000      230,2694     1081   49,39%
Elapsed time = 0,46 sec. (281,65 ticks, tree = 0,02 MB, solutions = 5)
   1501  1024      406,6384   189      455,0000      338,1477    84238   25,68%
   1636   952      439,1131   112      455,0000      339,9560    79570   25,28%
   3492  2275      397,3427   211      455,0000      360,6269   167727   20,74%

Performing restart 1

Repeating presolve.
Tried aggregator 2 times.
MIP Presolve eliminated 22 rows and 11 columns.
MIP Presolve added 12 rows and 0 columns.
MIP Presolve modified 15 coefficients.
Aggregator did 6 substitutions.
Reduced MIP has 312 rows, 303 columns, and 1215 nonzeros.
Reduced MIP has 303 binaries, 0 generals, 0 SOSs, and 0 indicators.
Presolve time = 0,00 sec. (1,64 ticks)
Tried aggregator 1 time.
Reduced MIP has 312 rows, 303 columns, and 1215 nonzeros.
Reduced MIP has 303 binaries, 0 generals, 0 SOSs, and 0 indicators.
Presolve time = 0,00 sec. (1,04 ticks)
Represolve time = 0,02 sec. (9,17 ticks)
   4735     0      233,2730   303      455,0000      Cuts: 26   239771   17,96%
   4735     0      235,9985   303      455,0000       Cuts: 9   239856   17,96%
   4735     0      237,2636   303      455,0000       Cuts: 7   239958   17,96%
   4735     0      238,6210   303      455,0000      Cuts: 15   240089   17,96%
   4735     2      238,6210   303      455,0000      373,2679   240089   17,96%
   4742     5      263,9403   281      455,0000      373,2679   241032   17,96%
   5747   724      436,2742    54      455,0000      373,2679   283625   17,96%
   6885  1418      411,5269   178      455,0000      373,2679   332119   17,96%
   8958  3367      444,9410   105      455,0000      373,2679   425817   17,96%
  10798  4739      367,7515   241      455,0000      373,2679   493821   17,96%

Performing restart 2

Repeating presolve.
Tried aggregator 1 time.
Reduced MIP has 312 rows, 303 columns, and 1215 nonzeros.
Reduced MIP has 303 binaries, 0 generals, 0 SOSs, and 0 indicators.
Presolve time = 0,00 sec. (0,73 ticks)
Tried aggregator 1 time.
Reduced MIP has 312 rows, 303 columns, and 1215 nonzeros.
Reduced MIP has 303 binaries, 0 generals, 0 SOSs, and 0 indicators.
Presolve time = 0,00 sec. (1,04 ticks)
Represolve time = 0,03 sec. (12,16 ticks)
  10844     0      239,7627   303      455,0000       Cuts: 9   523563   17,96%
  10844     0      241,0911   303      455,0000       Cuts: 3   523673   17,96%
  10844     0      241,7825   303      455,0000      Cuts: 11   523758   17,96%
  10844     0      244,2662   303      455,0000      Cuts: 20   523921   17,96%
  10844     0      244,9548   303      455,0000      Cuts: 17   524036   17,96%
  10844     0      246,0440   303      455,0000      Cuts: 13   524174   17,96%
  12532  1055      451,5119    45      455,0000      373,2679   567630   17,96%
Elapsed time = 4,43 sec. (3735,11 ticks, tree = 1,85 MB, solutions = 5)
* 14087+ 2120                          452,0000      373,2679            17,42%
  20517  5972      412,9905   189      452,0000      388,0283   841500   14,15%
  29849 10526        cutoff            452,0000      405,9104  1120191   10,20%
  39526 13189        cutoff            452,0000      416,6283  1368824    7,83%
  49271 13562        cutoff            452,0000      425,0911  1646240    5,95%
* 53847 12575      integral     0      450,0000      429,6979  1768883    4,51%
  59356  9111      446,1545   164      450,0000      435,9948  1899864    3,11%

Clique cuts applied:  61
Cover cuts applied:  437
Flow cuts applied:  5
Mixed integer rounding cuts applied:  139
Zero-half cuts applied:  16
Lift and project cuts applied:  19
Gomory fractional cuts applied:  30

Root node processing (before b&c):
  Real time             =    0,46 sec. (281,14 ticks)
Parallel b&c, 16 threads:
  Real time             =   11,17 sec. (8841,99 ticks)
  Sync time (average)   =    2,78 sec.
  Wait time (average)   =    0,01 sec.
                          ------------
Total (root+branch&cut) =   11,63 sec. (9123,13 ticks)
